c Modular CNF with 4 modules
c Generated CNF instance
p cnf 40 640
1 4 2 0
1 4 -2 0
1 -4 2 0
-1 4 2 0
9 7 3 0
9 7 -3 0
9 -7 3 0
-9 7 3 0
7 6 10 0
7 6 -10 0
7 -6 10 0
-7 6 10 0
10 4 1 0
10 4 -1 0
10 -4 1 0
-10 4 1 0
1 8 4 0
1 8 -4 0
1 -8 4 0
-1 8 4 0
9 3 1 0
9 3 -1 0
9 -3 1 0
-9 3 1 0
10 2 7 0
10 2 -7 0
10 -2 7 0
-10 2 7 0
3 2 5 0
3 2 -5 0
3 -2 5 0
-3 2 5 0
7 2 10 0
7 2 -10 0
7 -2 10 0
-7 2 10 0
2 5 6 0
2 5 -6 0
2 -5 6 0
-2 5 6 0
3 7 1 0
3 7 -1 0
3 -7 1 0
-3 7 1 0
3 2 4 0
3 2 -4 0
3 -2 4 0
-3 2 4 0
1 7 6 0
1 7 -6 0
1 -7 6 0
-1 7 6 0
4 3 8 0
4 3 -8 0
4 -3 8 0
-4 3 8 0
4 1 9 0
4 1 -9 0
4 -1 9 0
-4 1 9 0
6 7 3 0
6 7 -3 0
6 -7 3 0
-6 7 3 0
2 6 4 0
2 6 -4 0
2 -6 4 0
-2 6 4 0
1 2 4 0
1 2 -4 0
1 -2 4 0
-1 2 4 0
9 6 8 0
9 6 -8 0
9 -6 8 0
-9 6 8 0
1 8 10 0
1 8 -10 0
1 -8 10 0
-1 8 10 0
3 10 2 0
3 10 -2 0
3 -10 2 0
-3 10 2 0
8 5 9 0
8 5 -9 0
8 -5 9 0
-8 5 9 0
2 1 4 0
2 1 -4 0
2 -1 4 0
-2 1 4 0
2 8 4 0
2 8 -4 0
2 -8 4 0
-2 8 4 0
9 10 6 0
9 10 -6 0
9 -10 6 0
-9 10 6 0
2 10 6 0
2 10 -6 0
2 -10 6 0
-2 10 6 0
9 6 8 0
9 6 -8 0
9 -6 8 0
-9 6 8 0
1 8 5 0
1 8 -5 0
1 -8 5 0
-1 8 5 0
6 8 7 0
6 8 -7 0
6 -8 7 0
-6 8 7 0
5 9 6 0
5 9 -6 0
5 -9 6 0
-5 9 6 0
4 2 5 0
4 2 -5 0
4 -2 5 0
-4 2 5 0
3 9 10 0
3 9 -10 0
3 -9 10 0
-3 9 10 0
2 4 5 0
2 4 -5 0
2 -4 5 0
-2 4 5 0
9 5 2 0
9 5 -2 0
9 -5 2 0
-9 5 2 0
2 10 9 0
2 10 -9 0
2 -10 9 0
-2 10 9 0
2 4 10 0
2 4 -10 0
2 -4 10 0
-2 4 10 0
4 9 8 0
4 9 -8 0
4 -9 8 0
-4 9 8 0
7 9 2 0
7 9 -2 0
7 -9 2 0
-7 9 2 0
8 1 4 0
8 1 -4 0
8 -1 4 0
-8 1 4 0
6 9 1 0
6 9 -1 0
6 -9 1 0
-6 9 1 0
12 20 18 0
12 20 -18 0
12 -20 18 0
-12 20 18 0
14 20 18 0
14 20 -18 0
14 -20 18 0
-14 20 18 0
13 20 12 0
13 20 -12 0
13 -20 12 0
-13 20 12 0
16 15 19 0
16 15 -19 0
16 -15 19 0
-16 15 19 0
18 12 20 0
18 12 -20 0
18 -12 20 0
-18 12 20 0
12 15 19 0
12 15 -19 0
12 -15 19 0
-12 15 19 0
17 18 11 0
17 18 -11 0
17 -18 11 0
-17 18 11 0
13 17 20 0
13 17 -20 0
13 -17 20 0
-13 17 20 0
18 19 15 0
18 19 -15 0
18 -19 15 0
-18 19 15 0
14 12 16 0
14 12 -16 0
14 -12 16 0
-14 12 16 0
19 20 18 0
19 20 -18 0
19 -20 18 0
-19 20 18 0
18 13 19 0
18 13 -19 0
18 -13 19 0
-18 13 19 0
14 19 13 0
14 19 -13 0
14 -19 13 0
-14 19 13 0
15 11 20 0
15 11 -20 0
15 -11 20 0
-15 11 20 0
17 11 12 0
17 11 -12 0
17 -11 12 0
-17 11 12 0
20 19 18 0
20 19 -18 0
20 -19 18 0
-20 19 18 0
15 20 16 0
15 20 -16 0
15 -20 16 0
-15 20 16 0
12 19 11 0
12 19 -11 0
12 -19 11 0
-12 19 11 0
15 19 18 0
15 19 -18 0
15 -19 18 0
-15 19 18 0
13 17 15 0
13 17 -15 0
13 -17 15 0
-13 17 15 0
20 13 14 0
20 13 -14 0
20 -13 14 0
-20 13 14 0
11 19 15 0
11 19 -15 0
11 -19 15 0
-11 19 15 0
17 16 18 0
17 16 -18 0
17 -16 18 0
-17 16 18 0
12 11 17 0
12 11 -17 0
12 -11 17 0
-12 11 17 0
14 17 20 0
14 17 -20 0
14 -17 20 0
-14 17 20 0
16 18 12 0
16 18 -12 0
16 -18 12 0
-16 18 12 0
20 14 17 0
20 14 -17 0
20 -14 17 0
-20 14 17 0
19 18 12 0
19 18 -12 0
19 -18 12 0
-19 18 12 0
11 18 12 0
11 18 -12 0
11 -18 12 0
-11 18 12 0
18 12 13 0
18 12 -13 0
18 -12 13 0
-18 12 13 0
11 12 16 0
11 12 -16 0
11 -12 16 0
-11 12 16 0
11 19 13 0
11 19 -13 0
11 -19 13 0
-11 19 13 0
16 14 12 0
16 14 -12 0
16 -14 12 0
-16 14 12 0
19 15 12 0
19 15 -12 0
19 -15 12 0
-19 15 12 0
11 13 19 0
11 13 -19 0
11 -13 19 0
-11 13 19 0
12 18 16 0
12 18 -16 0
12 -18 16 0
-12 18 16 0
13 16 15 0
13 16 -15 0
13 -16 15 0
-13 16 15 0
20 12 18 0
20 12 -18 0
20 -12 18 0
-20 12 18 0
19 15 17 0
19 15 -17 0
19 -15 17 0
-19 15 17 0
17 15 14 0
17 15 -14 0
17 -15 14 0
-17 15 14 0
21 23 28 0
21 23 -28 0
21 -23 28 0
-21 23 28 0
23 29 22 0
23 29 -22 0
23 -29 22 0
-23 29 22 0
22 26 28 0
22 26 -28 0
22 -26 28 0
-22 26 28 0
29 21 24 0
29 21 -24 0
29 -21 24 0
-29 21 24 0
22 29 30 0
22 29 -30 0
22 -29 30 0
-22 29 30 0
26 22 24 0
26 22 -24 0
26 -22 24 0
-26 22 24 0
30 28 21 0
30 28 -21 0
30 -28 21 0
-30 28 21 0
28 26 27 0
28 26 -27 0
28 -26 27 0
-28 26 27 0
21 24 29 0
21 24 -29 0
21 -24 29 0
-21 24 29 0
24 28 22 0
24 28 -22 0
24 -28 22 0
-24 28 22 0
29 25 28 0
29 25 -28 0
29 -25 28 0
-29 25 28 0
23 29 25 0
23 29 -25 0
23 -29 25 0
-23 29 25 0
23 22 27 0
23 22 -27 0
23 -22 27 0
-23 22 27 0
29 25 23 0
29 25 -23 0
29 -25 23 0
-29 25 23 0
26 25 29 0
26 25 -29 0
26 -25 29 0
-26 25 29 0
21 23 25 0
21 23 -25 0
21 -23 25 0
-21 23 25 0
28 29 21 0
28 29 -21 0
28 -29 21 0
-28 29 21 0
22 27 30 0
22 27 -30 0
22 -27 30 0
-22 27 30 0
24 28 29 0
24 28 -29 0
24 -28 29 0
-24 28 29 0
22 30 23 0
22 30 -23 0
22 -30 23 0
-22 30 23 0
21 28 27 0
21 28 -27 0
21 -28 27 0
-21 28 27 0
28 29 24 0
28 29 -24 0
28 -29 24 0
-28 29 24 0
28 27 21 0
28 27 -21 0
28 -27 21 0
-28 27 21 0
30 27 29 0
30 27 -29 0
30 -27 29 0
-30 27 29 0
28 27 30 0
28 27 -30 0
28 -27 30 0
-28 27 30 0
25 24 27 0
25 24 -27 0
25 -24 27 0
-25 24 27 0
29 21 28 0
29 21 -28 0
29 -21 28 0
-29 21 28 0
28 26 25 0
28 26 -25 0
28 -26 25 0
-28 26 25 0
29 21 23 0
29 21 -23 0
29 -21 23 0
-29 21 23 0
24 22 23 0
24 22 -23 0
24 -22 23 0
-24 22 23 0
24 29 25 0
24 29 -25 0
24 -29 25 0
-24 29 25 0
21 28 23 0
21 28 -23 0
21 -28 23 0
-21 28 23 0
28 29 26 0
28 29 -26 0
28 -29 26 0
-28 29 26 0
22 23 27 0
22 23 -27 0
22 -23 27 0
-22 23 27 0
26 29 21 0
26 29 -21 0
26 -29 21 0
-26 29 21 0
22 30 23 0
22 30 -23 0
22 -30 23 0
-22 30 23 0
22 25 23 0
22 25 -23 0
22 -25 23 0
-22 25 23 0
24 21 26 0
24 21 -26 0
24 -21 26 0
-24 21 26 0
30 25 27 0
30 25 -27 0
30 -25 27 0
-30 25 27 0
23 22 25 0
23 22 -25 0
23 -22 25 0
-23 22 25 0
36 31 38 0
36 31 -38 0
36 -31 38 0
-36 31 38 0
31 33 38 0
31 33 -38 0
31 -33 38 0
-31 33 38 0
38 33 40 0
38 33 -40 0
38 -33 40 0
-38 33 40 0
38 40 33 0
38 40 -33 0
38 -40 33 0
-38 40 33 0
39 34 32 0
39 34 -32 0
39 -34 32 0
-39 34 32 0
34 35 39 0
34 35 -39 0
34 -35 39 0
-34 35 39 0
37 32 39 0
37 32 -39 0
37 -32 39 0
-37 32 39 0
34 33 36 0
34 33 -36 0
34 -33 36 0
-34 33 36 0
35 34 37 0
35 34 -37 0
35 -34 37 0
-35 34 37 0
32 39 40 0
32 39 -40 0
32 -39 40 0
-32 39 40 0
38 33 32 0
38 33 -32 0
38 -33 32 0
-38 33 32 0
37 36 31 0
37 36 -31 0
37 -36 31 0
-37 36 31 0
40 38 33 0
40 38 -33 0
40 -38 33 0
-40 38 33 0
40 31 33 0
40 31 -33 0
40 -31 33 0
-40 31 33 0
38 40 39 0
38 40 -39 0
38 -40 39 0
-38 40 39 0
39 37 40 0
39 37 -40 0
39 -37 40 0
-39 37 40 0
39 37 32 0
39 37 -32 0
39 -37 32 0
-39 37 32 0
31 33 37 0
31 33 -37 0
31 -33 37 0
-31 33 37 0
35 39 32 0
35 39 -32 0
35 -39 32 0
-35 39 32 0
32 39 33 0
32 39 -33 0
32 -39 33 0
-32 39 33 0
39 33 38 0
39 33 -38 0
39 -33 38 0
-39 33 38 0
36 38 35 0
36 38 -35 0
36 -38 35 0
-36 38 35 0
35 32 39 0
35 32 -39 0
35 -32 39 0
-35 32 39 0
33 34 36 0
33 34 -36 0
33 -34 36 0
-33 34 36 0
34 36 39 0
34 36 -39 0
34 -36 39 0
-34 36 39 0
38 32 33 0
38 32 -33 0
38 -32 33 0
-38 32 33 0
31 33 39 0
31 33 -39 0
31 -33 39 0
-31 33 39 0
40 38 39 0
40 38 -39 0
40 -38 39 0
-40 38 39 0
35 34 38 0
35 34 -38 0
35 -34 38 0
-35 34 38 0
31 39 32 0
31 39 -32 0
31 -39 32 0
-31 39 32 0
36 32 33 0
36 32 -33 0
36 -32 33 0
-36 32 33 0
40 35 33 0
40 35 -33 0
40 -35 33 0
-40 35 33 0
39 36 32 0
39 36 -32 0
39 -36 32 0
-39 36 32 0
38 32 35 0
38 32 -35 0
38 -32 35 0
-38 32 35 0
37 39 33 0
37 39 -33 0
37 -39 33 0
-37 39 33 0
32 37 39 0
32 37 -39 0
32 -37 39 0
-32 37 39 0
39 35 34 0
39 35 -34 0
39 -35 34 0
-39 35 34 0
35 33 34 0
35 33 -34 0
35 -33 34 0
-35 33 34 0
32 34 39 0
32 34 -39 0
32 -34 39 0
-32 34 39 0
35 39 40 0
35 39 -40 0
35 -39 40 0
-35 39 40 0
